(set-logic HORN)
(declare-fun state (Int (Array Int Int) (Array Int Int) (Array Int Int) Int Int (Array Int Int) (Array Int Int) Int Int Int Int Int Int Int Int Int Int Int Int Int Int Int Int Int Int Bool Bool Bool Bool Bool Int Int (Array Int Int)) Bool)
(assert (forall ((|A_16| Int) (|B_16| (Array Int Int)) (|C_16| (Array Int Int)) (|D_16| (Array Int Int)) (|E_16| Int) (|F_16| Int) (|G_16| (Array Int Int)) (|H_16| (Array Int Int)) (|I_16| Int) (|J_16| Int) (|K_16| Int) (|L_16| Int) (|M_16| Int) (|N_16| Int) (|O_16| Int) (|P_16| Int) (|Q_16| Int) (|R_16| Int) (|S_16| Int) (|T_16| Int) (|U_16| Int) (|V_16| Int) (|W_16| Int) (|X_16| Int) (|Y_16| Int) (|Z_16| Int) (|B1_9| Bool) (|.loc.5| Bool) (|.loc.6| Bool) (|.loc.7| Bool) (|.loc.8| Bool) (|D1_1| Int) (|C1_2| Int) (|B1_0| (Array Int Int)) (|.x.431| Int) (|.x.429| (Array Int Int)) (|.x.427| Int) (|.x.425| (Array Int Int)) (|.x.422| Int) (|.x.424| (Array Int Int)) (|.x.423| (Array Int Int)) (|A1_16| Bool) (|.x.432| Int) (|.x.437| Int) (|.x.439| Int) (|.x.440| Int) (|.x.443| Int) (|.x.445| Int) (|.loc.10| Bool) (|.loc.12| Bool) (|.loc.11| Bool) (|.x.444| Int) (|.x.433| Int) (|.x.446| Int) (|.x.447| Int) (|.loc.9| Bool) (|.x.436| Int) (|.x.434| Int) (|.x.435| Int) (|.x.442| Int) (|.x.441| Int) (|.x.428| (Array Int Int)) (|.x.426| Int) (|.x.430| Int) (|.x.438| Int) (|.xtv.1| Int) (|.xtv.2| Int) (|.xtv.3| (Array Int Int))) (=> (and (and (and (and .loc.6 (not .loc.5)) (not .loc.7)) (not .loc.8)) (and (and (and (and (= G_16 H_16) (not B1_9)) (= E_16 F_16)) (= B_16 C_16)) (= I_16 J_16))) (state |A_16| |B_16| |C_16| |D_16| |E_16| |F_16| |G_16| |H_16| |I_16| |J_16| |K_16| |L_16| |M_16| |N_16| |O_16| |P_16| |Q_16| |R_16| |S_16| |T_16| |U_16| |V_16| |W_16| |X_16| |Y_16| |Z_16| |B1_9| |.loc.5| |.loc.6| |.loc.7| |.loc.8| |D1_1| |C1_2| |B1_0|))))
(assert (forall ((|A_16| Int) (|B_16| (Array Int Int)) (|C_16| (Array Int Int)) (|D_16| (Array Int Int)) (|E_16| Int) (|F_16| Int) (|G_16| (Array Int Int)) (|H_16| (Array Int Int)) (|I_16| Int) (|J_16| Int) (|K_16| Int) (|L_16| Int) (|M_16| Int) (|N_16| Int) (|O_16| Int) (|P_16| Int) (|Q_16| Int) (|R_16| Int) (|S_16| Int) (|T_16| Int) (|U_16| Int) (|V_16| Int) (|W_16| Int) (|X_16| Int) (|Y_16| Int) (|Z_16| Int) (|B1_9| Bool) (|.loc.5| Bool) (|.loc.6| Bool) (|.loc.7| Bool) (|.loc.8| Bool) (|D1_1| Int) (|C1_2| Int) (|B1_0| (Array Int Int)) (|.x.431| Int) (|.x.429| (Array Int Int)) (|.x.427| Int) (|.x.425| (Array Int Int)) (|.x.422| Int) (|.x.424| (Array Int Int)) (|.x.423| (Array Int Int)) (|A1_16| Bool) (|.x.432| Int) (|.x.437| Int) (|.x.439| Int) (|.x.440| Int) (|.x.443| Int) (|.x.445| Int) (|.loc.10| Bool) (|.loc.12| Bool) (|.loc.11| Bool) (|.x.444| Int) (|.x.433| Int) (|.x.446| Int) (|.x.447| Int) (|.loc.9| Bool) (|.x.436| Int) (|.x.434| Int) (|.x.435| Int) (|.x.442| Int) (|.x.441| Int) (|.x.428| (Array Int Int)) (|.x.426| Int) (|.x.430| Int) (|.x.438| Int) (|.xtv.1| Int) (|.xtv.2| Int) (|.xtv.3| (Array Int Int))) (=> (and (state |A_16| |B_16| |C_16| |D_16| |E_16| |F_16| |G_16| |H_16| |I_16| |J_16| |K_16| |L_16| |M_16| |N_16| |O_16| |P_16| |Q_16| |R_16| |S_16| |T_16| |U_16| |V_16| |W_16| |X_16| |Y_16| |Z_16| |B1_9| |.loc.5| |.loc.6| |.loc.7| |.loc.8| |D1_1| |C1_2| |B1_0|) (let ((.def_44 (not .loc.5))) (let ((.def_46 (not .loc.7))) (let ((.def_48 (not .loc.8))) (let ((.def_78 (= B_16 .x.423))) (let ((.def_82 (= K_16 .x.432))) (let ((.def_85 (= P_16 .x.437))) (let ((.def_88 (= R_16 .x.439))) (let ((.def_91 (= S_16 .x.440))) (let ((.def_94 (= V_16 .x.443))) (let ((.def_97 (= X_16 .x.445))) (let ((.def_113 (not .loc.6))) (let ((.def_117 (= B1_9 A1_16))) (let ((.def_122 (not .loc.10))) (let ((.def_126 (not .loc.11))) (let ((.def_129 (= L_16 0))) (let ((.def_131 (and .def_78 .def_82))) (let ((.def_136 (and .def_97 (and .def_94 (and .def_91 (and .def_88 (and .def_85 .def_131))))))) (let ((.def_144 (not .loc.12))) (let ((.def_149 (= W_16 .x.444))) (let ((.def_151 (= L_16 .x.433))) (let ((.def_154 (= Y_16 .x.446))) (let ((.def_157 (= Z_16 .x.447))) (let ((.def_170 (select D_16 V_16))) (let ((.def_175 (select D_16 R_16))) (let ((.def_179 (<= 100000 O_16))) (let ((.def_194 (not .loc.9))) (let ((.def_199 (= O_16 .x.436))) (let ((.def_201 (= M_16 .x.434))) (let ((.def_209 (and .def_131 .def_151))) (let ((.def_228 (= Q_16 0))) (let ((.def_232 (and .def_201 .def_209))) (let ((.def_261 (and .def_157 (and .def_154 (and .def_97 (and .def_149 (and .def_94 (and .def_91 (and .def_88 (and .def_85 (and .def_199 .def_232))))))))))) (let ((.def_276 (and .def_201 (and .def_151 (and .def_82 (and B1_9 .def_78)))))) (let ((.def_286 (and .loc.5 (and .def_157 (and .def_154 (and .def_97 (and .def_149 (and .def_94 (and .def_91 (and .def_88 (and .def_85 (and .def_199 .def_276)))))))))))) (let ((.def_297 (and .loc.5 .def_261))) (let ((.def_317 (<= 100000 N_16))) (let ((.def_330 (= N_16 .x.435))) (let ((.def_394 (= G_16 .x.428))) (let ((.def_396 (= E_16 .x.426))) (let ((.def_399 (= I_16 .x.430))) (let ((.def_402 (= Q_16 .x.438))) (let ((.def_436 (store B1_0 .x.439 1))) (let ((.def_463 (= D1_1 C1_2))) (let ((.def_476 (and .def_85 (and .def_199 (and .def_330 (and .def_201 (and .def_151 (and .def_82 (and .def_399 (and .def_394 (and .def_78 .def_396))))))))))) (let ((.def_505 (or B1_9 (and (and (= C1_2 (select .def_170 (+ (* 4 N_16) X_16))) (not .def_317)) (= D1_1 (select .def_175 (+ K_16 (* 4 N_16)))))))) (and (and (= J_16 .x.431) (and (= H_16 .x.429) (and (= F_16 .x.427) (and (= D_16 .x.425) (and (= A_16 .x.422) (= C_16 .x.424)))))) (or (or (or (and (or (or (or (and (or (or (or (or (or (or (or (and (or (and (or (and (or (and .def_48 (and .loc.7 (and .loc.6 (and .loc.5 (and (and (and (and (and (and (and .def_78 A1_16) .def_82) .def_85) .def_88) .def_91) .def_94) .def_97))))) (and (or B1_9 (and (= .x.440 0) (= .x.423 (store (store B_16 R_16 0) V_16 0)))) (and (and (or A1_16 (= .x.437 .x.440)) (and .def_44 (and (and .loc.8 .def_46) .def_113))) .def_117))) (and (and .def_122 .loc.12) .def_126)) (and (or B1_9 .def_129) (and (and .def_117 (and .def_44 (and .loc.11 (and .loc.10 (and .def_48 (and .loc.7 (and .loc.6 .def_136))))))) .def_144))) (and (and (and (and .def_149 .def_151) .def_154) .def_157) .loc.9)) (and (or B1_9 (and (= .x.444 .x.433) (and (= .x.444 (ite (= .x.446 .x.447) 1 0)) (and (= .x.446 (select .def_170 (+ (* 4 O_16) X_16))) (and (= .x.447 (select .def_175 (+ K_16 (* 4 O_16)))) (not .def_179)))))) (and (and .def_144 (and .def_117 (and .def_113 (and .loc.11 (and .loc.10 (and .def_48 (and .loc.7 (and .loc.5 .def_136)))))))) .def_194))) (and .def_199 .def_201)) (and (or A1_16 (= (+ O_16 (* (- 1) .x.436)) (- 1))) (and .def_144 (and .def_117 (and .def_44 (and .def_113 (and .def_46 (and .def_122 (and .loc.11 (and .loc.9 (and .def_48 (and .def_97 (and .def_149 (and .def_94 (and .def_91 (and .def_88 (and .def_85 .def_209))))))))))))))))) (and (or B1_9 (and (= .x.436 0) (not .def_228))) (and .def_144 (and .def_117 (and .def_44 (and .def_113 (and .def_122 (and .loc.11 (and .loc.9 (and .def_48 (and .loc.7 (and .def_157 (and .def_154 (and .def_97 (and .def_149 (and .def_94 (and .def_91 (and .def_88 (and .def_85 .def_232))))))))))))))))))) (and (or B1_9 .def_228) (and .def_194 (and .def_117 (and .def_44 (and .def_113 (and .def_126 (and .def_122 (and .loc.12 (and .def_48 (and .loc.7 .def_261))))))))))) (and .def_194 (and .def_117 (and .def_113 (and .def_126 (and .def_122 (and .loc.12 (and .def_48 (and .loc.7 .def_286))))))))) (and (or B1_9 .def_179) (and .def_194 (and .def_117 (and .def_113 (and .def_126 (and .def_122 (and .loc.12 (and .def_48 (and .loc.7 .def_297)))))))))) (and .def_194 (and .def_144 (and .def_117 (and .def_46 (and .def_122 (and .loc.11 (and .def_48 (and .loc.6 .def_286))))))))) (and (or B1_9 .def_317) (and .def_194 (and .def_144 (and .def_117 (and .def_46 (and .def_122 (and .loc.11 (and .def_48 (and .loc.6 .def_297)))))))))) .def_330) (and (or B1_9 (= (+ N_16 (* (- 1) .x.435)) (- 1))) (and .def_144 (and .def_117 (and .def_113 (and .def_46 (and .def_126 (and .loc.10 (and .loc.9 (and .def_48 .def_297)))))))))) (and (or B1_9 (not .def_129)) (and .def_194 (and .def_144 (and .def_117 (and .def_44 (and .def_126 (and .def_122 (and .def_48 (and .loc.7 (and .loc.6 (and .def_157 (and .def_154 (and .def_97 (and .def_149 (and .def_94 (and .def_91 (and .def_88 (and .def_85 (and .def_199 (and .def_232 .def_330))))))))))))))))))))) (and .def_194 (and .def_144 (and .def_117 (and .def_126 (and .def_122 (and .def_48 (and .loc.7 (and .loc.6 (and .loc.5 (and .def_157 (and .def_154 (and .def_97 (and .def_149 (and .def_94 (and .def_91 (and .def_88 (and .def_85 (and .def_199 (and .def_276 .def_330)))))))))))))))))))) (and (= U_16 .x.442) (and (= T_16 .x.441) (and (and (and .def_394 .def_396) .def_399) .def_402)))) (and (or B1_9 (and (and (= .x.430 0) (= .x.426 0)) (= B1_0 (store B_16 0 0)))) (and (or A1_16 (and (and (and (and (and (and (and (and (and (and (and (not (<= .x.422 .x.439)) (not (<= .x.422 .x.443))) (= .x.435 0)) (not (= .x.443 0))) (not (= .x.439 0))) (= .x.438 1)) (= .x.432 0)) (= .x.445 0)) (= (select B1_0 .x.439) 0)) (= (select .def_436 .x.443) 0)) (= .x.428 (store (store G_16 .x.439 400000) .x.443 400000))) (= .x.423 (store .def_436 .x.443 1)))) (and .def_144 (and .def_117 (and .def_44 (and .def_46 (and .def_126 (and .loc.10 (and .loc.9 (and .def_48 (and .loc.6 (and .def_149 (and .def_85 .def_151)))))))))))))) (and (and (or A1_16 (and (not .def_463) (= .x.438 0))) (and .def_144 (and .def_117 (and .def_46 (and .def_126 (and .def_122 (and .loc.9 (and .def_48 (and .loc.6 (and .loc.5 (and .def_157 (and .def_154 (and .def_97 (and .def_149 (and .def_94 (and .def_91 (and .def_88 .def_476))))))))))))))))) .def_505)) (and (or A1_16 .def_463) (and .def_505 (and .def_144 (and .def_117 (and .def_46 (and .def_126 (and .def_122 (and .loc.9 (and .def_48 (and .loc.6 (and .loc.5 (and .def_157 (and .def_154 (and .def_97 (and .def_149 (and .def_94 (and .def_91 (and .def_88 (and .def_402 .def_476))))))))))))))))))))))))))))))))))))))))))))))))))))))))))))))))))) (state |.x.422| |.x.423| |.x.424| |.x.425| |.x.426| |.x.427| |.x.428| |.x.429| |.x.430| |.x.431| |.x.432| |.x.433| |.x.434| |.x.435| |.x.436| |.x.437| |.x.438| |.x.439| |.x.440| |.x.441| |.x.442| |.x.443| |.x.444| |.x.445| |.x.446| |.x.447| |A1_16| |.loc.9| |.loc.10| |.loc.11| |.loc.12| |.xtv.1| |.xtv.2| |.xtv.3|))))
(assert (forall ((|A_16| Int) (|B_16| (Array Int Int)) (|C_16| (Array Int Int)) (|D_16| (Array Int Int)) (|E_16| Int) (|F_16| Int) (|G_16| (Array Int Int)) (|H_16| (Array Int Int)) (|I_16| Int) (|J_16| Int) (|K_16| Int) (|L_16| Int) (|M_16| Int) (|N_16| Int) (|O_16| Int) (|P_16| Int) (|Q_16| Int) (|R_16| Int) (|S_16| Int) (|T_16| Int) (|U_16| Int) (|V_16| Int) (|W_16| Int) (|X_16| Int) (|Y_16| Int) (|Z_16| Int) (|B1_9| Bool) (|.loc.5| Bool) (|.loc.6| Bool) (|.loc.7| Bool) (|.loc.8| Bool) (|D1_1| Int) (|C1_2| Int) (|B1_0| (Array Int Int)) (|.x.431| Int) (|.x.429| (Array Int Int)) (|.x.427| Int) (|.x.425| (Array Int Int)) (|.x.422| Int) (|.x.424| (Array Int Int)) (|.x.423| (Array Int Int)) (|A1_16| Bool) (|.x.432| Int) (|.x.437| Int) (|.x.439| Int) (|.x.440| Int) (|.x.443| Int) (|.x.445| Int) (|.loc.10| Bool) (|.loc.12| Bool) (|.loc.11| Bool) (|.x.444| Int) (|.x.433| Int) (|.x.446| Int) (|.x.447| Int) (|.loc.9| Bool) (|.x.436| Int) (|.x.434| Int) (|.x.435| Int) (|.x.442| Int) (|.x.441| Int) (|.x.428| (Array Int Int)) (|.x.426| Int) (|.x.430| Int) (|.x.438| Int) (|.xtv.1| Int) (|.xtv.2| Int) (|.xtv.3| (Array Int Int))) (=> (state |A_16| |B_16| |C_16| |D_16| |E_16| |F_16| |G_16| |H_16| |I_16| |J_16| |K_16| |L_16| |M_16| |N_16| |O_16| |P_16| |Q_16| |R_16| |S_16| |T_16| |U_16| |V_16| |W_16| |X_16| |Y_16| |Z_16| |B1_9| |.loc.5| |.loc.6| |.loc.7| |.loc.8| |D1_1| |C1_2| |B1_0|) (not (and B1_9 (and .loc.8 (and (not .loc.7) (and .loc.5 (not .loc.6)))))))))
(check-sat)
